Route #1: 24 95 73 53 33 32
Route #2: 17 8
Route #3: 93 75
Route #4: 25 65 78 42 28
Route #5: 89 98 99 62 71
Route #6: 39 10 18
Route #7: 14 49 6 37 87
Route #8: 81 51 83
Route #9: 92 9 86
Route #10: 31 46 35
Route #11: 57 72 36 29 43 45 2 7
Route #12: 4 13 74
Route #13: 20 41 22 15
Route #14: 80 94 56 21
Route #15: 58 12 5
Route #16: 52 91 50
Route #17: 23 61 100
Route #18: 3 77 63
Route #19: 19 97 27
Route #20: 1 70 54
Route #21: 66 84 90 68
Route #22: 40 88 67 44
Route #23: 82 60 59
Route #24: 30 85 11 79
Route #25: 69 16 55 76
Route #26: 38 47 26 48 96 64 34
Cost 27591.0000
Time 16.0006